DATASET = "thpack3";
INSTANCE = "015";

WIDTH = 233;
HEIGHT = 220;
LENGTH = 587;

NO_OF_SHAPES = 8;
size = [|
  100,44,37 |
  90,78,55 |
  65,57,42 |
  85,58,41 |
  81,69,50 |
  84,78,51 |
  109,73,73 |
  73,58,52 |
|];

verticality = [|
  0,1,1 |
  1,1,1 |
  1,1,1 |
  0,1,1 |
  1,1,1 |
  1,1,1 |
  1,1,1 |
  1,1,1 |
|];

box_count = [
  11,
  11,
  12,
  13,
  15,
  20,
  11,
  10,
];
